Cost 211
Route #1: 20 17 6 31 14 45 10 35 39 42
Route #2: 18 43 19 3 28 44 4 29
Route #3: 11 36 21 22 25 50 15 47 40 46
Route #4: 24 8 33 16 9 34 41 1 26 49
Route #5: 23 48 12 37 13 38
Route #6: 7 32 5 30 2 27